s td 130 11 140
b 1 1 2 15
b 2 13 14 28
b 3 113 127 128
b 4 126 139 140
b 5 2 3 15 16
b 6 12 13 27 28
b 7 3 4 18 33 48 63 78 93 108 123 137
b 8 4 5 18 33 48 63 78 93 108 123 137
b 9 5 18 20 33 48 63 78 93 108 123 137
b 10 5 7 20 33 48 63 78 93 108 123 137
b 11 5 6 7 20
b 12 7 20 33 35 48 63 78 93 108 123 137
b 13 7 20 22 35 48 63 78 93 108 123 137
b 14 7 22 35 48 50 63 78 93 108 123 137
b 15 7 22 35 37 50 63 78 93 108 123 137
b 16 7 22 37 50 63 65 78 93 108 123 137
b 17 7 22 37 50 52 65 78 93 108 123 137
b 18 7 22 37 52 65 78 80 93 108 123 137
b 19 7 22 37 52 65 67 80 93 108 123 137
b 20 7 22 37 52 67 80 93 95 108 123 137
b 21 7 22 37 52 67 80 82 95 108 123 137
b 22 7 22 37 52 67 82 95 108 110 123 137
b 23 7 22 37 52 67 82 95 97 110 123 137
b 24 7 22 37 52 67 82 97 98 110 123 137
b 25 7 22 37 52 67 82 84 97 98
b 26 7 22 37 52 67 69 82 84 97
b 27 7 22 37 52 54 67 69 82 84
b 28 7 22 37 39 52 54 67 69 84
b 29 7 22 24 37 39 52 54 69 84
b 30 7 11 22 24 37 39 54 69 84
b 31 7 9 11 22 24 37
b 32 7 8 9 22
b 33 9 10 11 24
b 34 9 22 23 24 37
b 35 11 24 26 39 54 69 84
b 36 11 26 39 41 54 69 84
b 37 11 26 41 42 54 69 84
b 38 11 26 27 41 42
b 39 11 12 26 27 42
b 40 12 27 28 42
b 41 41 42 54 56 69 84
b 42 41 54 55 56 69
b 43 56 69 70 84
b 44 26 39 40 41 54
b 45 11 24 25 26 39
b 46 24 37 38 39 52
b 47 39 52 53 54 67
b 48 54 67 68 69 82
b 49 69 82 83 84 97
b 50 97 98 110 123 124 137
b 51 97 98 110 111 124 137
b 52 98 111 124 137 139
b 53 98 111 124 125 139
b 54 98 111 112 125 139
b 55 124 137 138 139
b 56 82 95 96 97 110
b 57 95 108 109 110 123
b 58 67 80 81 82 95
b 59 80 93 94 95 108
b 60 52 65 66 67 80
b 61 65 78 79 80 93
b 62 37 50 51 52 65
b 63 50 63 64 65 78
b 64 22 35 36 37 50
b 65 35 48 49 50 63
b 66 7 20 21 22 35
b 67 20 33 34 35 48
b 68 5 18 19 20 33
b 69 3 18 33 48 63 78 93 108 123 136 137
b 70 3 18 33 48 63 78 93 108 121 123 136
b 71 3 18 33 48 63 78 93 108 121 134 136
b 72 3 18 33 48 63 78 93 106 108 121 134
b 73 3 18 33 48 63 78 91 93 106 121 134
b 74 3 18 33 48 63 76 78 91 106 121 134
b 75 3 18 33 48 61 63 76 91 106 121 134
b 76 3 18 33 46 48 61 76 91 106 121 134
b 77 3 18 31 33 46 61 76 91 106 121 134
b 78 3 18 31 46 61 76 91 106 119 121 134
b 79 3 18 31 46 61 76 91 104 106 119 134
b 80 3 18 31 46 61 76 89 91 104 119 134
b 81 3 18 31 46 61 74 76 89 104 119 134
b 82 3 18 31 46 59 61 74 89 104 119 134
b 83 3 18 31 44 46 59 74 89 104 119 134
b 84 3 18 29 31 44 59 74 89 104 119 134
b 85 3 16 18 29 31 44
b 86 3 15 16 29
b 87 3 16 17 18 31
b 88 16 29 30 31 44
b 89 29 44 57 59 74 89 104 119 134
b 90 29 43 44 57
b 91 44 57 59 72 74 89 104 119 134
b 92 44 57 58 59 72
b 93 57 59 72 74 87 89 104 119 134
b 94 57 72 74 87 89 102 104 119 134
b 95 57 72 87 89 102 104 117 119 134
b 96 57 72 87 102 104 117 119 131 134
b 97 57 72 85 87 102 117 131
b 98 57 71 72 85
b 99 72 85 87 100 102 117 131
b 100 72 85 86 87 100
b 101 85 87 100 102 115 117 131
b 102 85 100 102 115 117 128 131
b 103 85 100 114 115 128
b 104 85 99 100 114 128
b 105 102 115 117 128 130 131
b 106 102 115 116 117 130
b 107 115 128 129 130
b 108 87 100 101 102 115
b 109 104 117 119 131 132 134
b 110 104 117 118 119 132
b 111 119 132 133 134
b 112 89 102 103 104 117
b 113 74 87 88 89 102
b 114 59 72 73 74 87
b 115 31 44 45 46 59
b 116 46 59 60 61 74
b 117 61 74 75 76 89
b 118 76 89 90 91 104
b 119 91 104 105 106 119
b 120 106 119 120 121 134
b 121 18 31 32 33 46
b 122 33 46 47 48 61
b 123 48 61 62 63 76
b 124 63 76 77 78 91
b 125 78 91 92 93 106
b 126 93 106 107 108 121
b 127 121 134 135 136
b 128 108 121 122 123 136
b 129 99 113 114 128
b 130 112 125 126 139
1 5
2 6
3 129
4 130
5 86
6 40
7 8
7 69
8 9
9 10
9 68
10 11
10 12
12 13
12 67
13 14
13 66
14 15
14 65
15 16
15 64
16 17
16 63
17 18
17 62
18 19
18 61
19 20
19 60
20 21
20 59
21 22
21 58
22 23
22 57
23 24
23 56
24 25
24 50
25 26
26 27
26 49
27 28
27 48
28 29
28 47
29 30
29 46
30 31
30 35
31 32
31 33
31 34
35 36
35 45
36 37
36 44
37 38
37 41
38 39
39 40
41 42
41 43
50 51
51 52
52 53
52 55
53 54
54 130
69 70
70 71
70 128
71 72
71 127
72 73
72 126
73 74
73 125
74 75
74 124
75 76
75 123
76 77
76 122
77 78
77 121
78 79
78 120
79 80
79 119
80 81
80 118
81 82
81 117
82 83
82 116
83 84
83 115
84 85
84 89
85 86
85 87
85 88
89 90
89 91
91 92
91 93
93 94
93 114
94 95
94 113
95 96
95 112
96 97
96 109
97 98
97 99
99 100
99 101
101 102
101 108
102 103
102 105
103 104
104 129
105 106
105 107
109 110
109 111
